c FILE /home/rafael/Documents/HappySet/MIHS/inputs/happygen/output/graph_scale_free_k5_p0.5_v100_20241127_083849.txt
c SOURCE This is a scale-free graph formed for the happy graph colouring problem.
c DESCRIPTION It was generated using the problem generator of Rhyd Lewis
c
c GRAPH STATS
c Seed                             = 1951178769
c Number of Nodes                  = 100
c Number of colours k              = 5
c Number of pre-assignments        = 50
c Number of links per new node     = 5
c Density                          = 0.0979798
c 
c The degrees of nodes 1 to 100, respectively, are as follows 
c [44, 31, 28, 25, 24, 24, 22, 20, 20, 19, 19, 18, 17, 16, 16, 16, 15, 15, 14, 12, 12, 12, 12, 11, 11, 11, 
c  11, 10, 10, 10, 10, 10, 10, 9, 9, 9, 9, 8, 8, 8, 8, 8, 8, 7, 7, 7, 7, 7, 7, 7, 7, 
c  7, 7, 7, 7, 7, 7, 6, 6, 6, 6, 6, 6, 6, 6, 6, 6, 6, 6, 6, 6, 6, 6, 6, 6, 5, 
c  5, 5, 5, 5, 5, 5, 5, 5, 5, 5, 5, 5, 5, 5, 5, 5, 5, 5, 5, 5, 5, 5, 5, 5] 
c  
p edge 100 485 5
e 1 2
e 1 3
e 1 4
e 1 5
e 1 6
e 1 7
e 1 8
e 1 9
e 1 10
e 1 11
e 1 12
e 1 13
e 1 14
e 1 15
e 1 17
e 1 20
e 1 21
e 1 23
e 1 25
e 1 26
e 1 27
e 1 31
e 1 34
e 1 35
e 1 39
e 1 45
e 1 46
e 1 47
e 1 48
e 1 49
e 1 54
e 1 55
e 1 58
e 1 60
e 1 64
e 1 66
e 1 68
e 1 72
e 1 73
e 1 74
e 1 76
e 1 82
e 1 83
e 1 88
e 2 3
e 2 4
e 2 6
e 2 10
e 2 12
e 2 14
e 2 15
e 2 19
e 2 23
e 2 25
e 2 27
e 2 28
e 2 31
e 2 33
e 2 34
e 2 38
e 2 40
e 2 43
e 2 49
e 2 50
e 2 53
e 2 58
e 2 66
e 2 73
e 2 80
e 2 82
e 2 87
e 2 90
e 2 93
e 2 96
e 3 4
e 3 5
e 3 6
e 3 7
e 3 8
e 3 10
e 3 12
e 3 16
e 3 17
e 3 21
e 3 23
e 3 24
e 3 25
e 3 29
e 3 30
e 3 31
e 3 32
e 3 42
e 3 49
e 3 59
e 3 70
e 3 71
e 3 72
e 3 84
e 3 85
e 3 96
e 4 5
e 4 6
e 4 7
e 4 8
e 4 9
e 4 13
e 4 14
e 4 15
e 4 18
e 4 22
e 4 25
e 4 29
e 4 43
e 4 46
e 4 47
e 4 52
e 4 57
e 4 67
e 4 70
e 4 74
e 4 91
e 4 94
e 5 6
e 5 8
e 5 10
e 5 11
e 5 12
e 5 19
e 5 22
e 5 24
e 5 26
e 5 30
e 5 35
e 5 36
e 5 38
e 5 48
e 5 55
e 5 60
e 5 63
e 5 68
e 5 70
e 5 71
e 5 72
e 6 8
e 6 9
e 6 11
e 6 12
e 6 13
e 6 15
e 6 17
e 6 20
e 6 24
e 6 41
e 6 45
e 6 46
e 6 48
e 6 61
e 6 69
e 6 76
e 6 87
e 6 92
e 6 96
e 7 11
e 7 13
e 7 26
e 7 30
e 7 32
e 7 34
e 7 35
e 7 40
e 7 42
e 7 51
e 7 64
e 7 76
e 7 80
e 7 81
e 7 83
e 7 84
e 7 86
e 7 94
e 7 100
e 8 10
e 8 12
e 8 14
e 8 17
e 8 34
e 8 41
e 8 44
e 8 47
e 8 59
e 8 61
e 8 62
e 8 63
e 8 64
e 8 88
e 8 100
e 9 13
e 9 18
e 9 19
e 9 28
e 9 43
e 9 44
e 9 45
e 9 49
e 9 56
e 9 62
e 9 71
e 9 80
e 9 83
e 9 89
e 9 94
e 9 97
e 9 99
e 10 18
e 10 21
e 10 22
e 10 32
e 10 39
e 10 40
e 10 44
e 10 50
e 10 61
e 10 78
e 10 80
e 10 81
e 10 84
e 10 89
e 11 13
e 11 19
e 11 29
e 11 34
e 11 39
e 11 51
e 11 62
e 11 64
e 11 65
e 11 73
e 11 85
e 11 87
e 11 93
e 11 98
e 11 99
e 12 17
e 12 19
e 12 20
e 12 24
e 12 26
e 12 28
e 12 36
e 12 45
e 12 53
e 12 77
e 12 83
e 12 95
e 13 14
e 13 17
e 13 19
e 13 21
e 13 28
e 13 29
e 13 30
e 13 37
e 13 38
e 13 55
e 13 96
e 14 15
e 14 16
e 14 17
e 14 20
e 14 26
e 14 27
e 14 32
e 14 45
e 14 50
e 14 53
e 14 77
e 15 23
e 15 40
e 15 50
e 15 55
e 15 56
e 15 58
e 15 59
e 15 60
e 15 80
e 15 87
e 15 100
e 16 26
e 16 31
e 16 33
e 16 36
e 16 39
e 16 47
e 16 49
e 16 56
e 16 61
e 16 67
e 16 76
e 16 78
e 16 84
e 16 88
e 17 19
e 17 21
e 17 32
e 17 59
e 17 78
e 17 92
e 17 94
e 17 99
e 18 20
e 18 21
e 18 31
e 18 38
e 18 41
e 18 46
e 18 54
e 18 57
e 18 67
e 18 75
e 18 84
e 18 95
e 19 20
e 19 29
e 19 33
e 19 42
e 19 44
e 19 54
e 19 99
e 20 25
e 20 27
e 20 33
e 20 44
e 20 47
e 20 65
e 21 22
e 21 24
e 21 30
e 21 65
e 21 97
e 21 100
e 22 28
e 22 31
e 22 36
e 22 50
e 22 57
e 22 78
e 22 91
e 22 95
e 23 29
e 23 35
e 23 37
e 23 41
e 23 54
e 23 59
e 23 76
e 23 97
e 24 48
e 24 56
e 24 58
e 24 68
e 24 70
e 24 93
e 25 28
e 25 51
e 25 52
e 25 60
e 25 63
e 25 67
e 26 33
e 26 57
e 26 63
e 26 74
e 26 98
e 27 33
e 27 41
e 27 64
e 27 68
e 27 74
e 27 75
e 27 86
e 28 38
e 28 46
e 28 65
e 28 85
e 29 33
e 29 36
e 29 53
e 29 58
e 30 37
e 30 61
e 30 69
e 30 75
e 30 99
e 31 70
e 31 81
e 31 91
e 31 98
e 32 43
e 32 52
e 32 65
e 32 77
e 32 79
e 33 37
e 33 48
e 33 86
e 34 35
e 34 52
e 34 69
e 34 81
e 35 51
e 35 66
e 35 79
e 35 86
e 36 42
e 36 43
e 36 54
e 36 90
e 37 44
e 37 52
e 37 66
e 37 67
e 37 85
e 38 71
e 38 82
e 38 86
e 39 48
e 39 53
e 39 62
e 39 77
e 40 44
e 40 55
e 40 63
e 40 68
e 41 66
e 41 95
e 41 98
e 42 49
e 42 89
e 42 90
e 42 91
e 43 75
e 43 87
e 43 96
e 45 72
e 45 83
e 46 73
e 46 75
e 47 69
e 47 82
e 48 82
e 49 60
e 50 69
e 50 78
e 51 59
e 51 79
e 51 88
e 52 90
e 52 92
e 53 57
e 53 62
e 54 85
e 54 97
e 55 56
e 55 77
e 56 71
e 56 79
e 57 72
e 57 98
e 58 93
e 60 97
e 61 73
e 62 79
e 63 89
e 64 91
e 65 89
e 66 90
e 67 92
e 68 81
e 69 95
e 70 88
e 71 74
e 72 94
e 73 93
e 74 92
e 75 100
n 1 2
n 4 2
n 5 2
n 8 2
n 16 2
n 20 2
n 21 2
n 26 2
n 27 2
n 28 3
n 30 2
n 32 4
n 37 2
n 40 2
n 42 3
n 45 2
n 47 2
n 48 2
n 50 2
n 51 4
n 53 5
n 54 2
n 60 2
n 61 2
n 63 2
n 64 2
n 67 2
n 70 2
n 71 2
n 74 2
n 75 2
n 76 2
n 77 4
n 78 2
n 79 4
n 80 4
n 81 1
n 82 2
n 83 2
n 84 2
n 86 2
n 90 3
n 92 2
n 93 5
n 94 2
n 95 1
n 96 2
n 97 2
n 98 2
n 99 2
